p cnf 20 15
14 -6 -19 9 -20 0
13 -5 -9 -10 1 0
-20 -10 3 -6 -7 0
-9 7 19 -12 -5 0
4 -12 5 -20 9 0
19 13 6 18 -5 0
17 -13 -4 -11 -6 0
1 -7 -14 13 -18 0
15 8 7 -19 -16 0
-9 -8 2 -7 -16 0
9 -2 -1 17 -19 0
-16 11 -14 9 3 0
10 3 8 -2 6 0
15 18 5 -8 12 0
-10 17 7 -11 3 0
